NAME: PointSet_Angle_20_10
TYPE: TSP
COMMENT: Points chosen discrete uniformly at random out of ${0, \ldots, 500}^2$.
DIMENSION: 20
EDGE_WEIGHT_TYPE: EUC_2D
NODE_COORD_SECTION
1 92 491
2 137 250
3 214 214
4 43 117
5 200 484
6 129 387
7 440 435
8 67 341
9 196 378
10 443 126
11 369 77
12 325 339
13 339 490
14 226 63
15 82 174
16 200 174
17 164 83
18 424 125
19 44 213
20 489 491
EOF
